/*---------------------------------------------------------------------------------------------------------------------------------------
Set the maximum scaling factor of 1stageLT
---------------------------------------------------------------------------------------------------------------------------------------*/
let Fmax['HP1stageLT'] := 10;
let Fmin['HP1stageLT'] := 1;

/*---------------------------------------------------------------------------------------------------------------------------------------
Set the reference size of Heat flow (will be scaled with mult_t)????
---------------------------------------------------------------------------------------------------------------------------------------*/
# let  Flowout['Heat','HP2stage'] := 1000; # [KW]
# why are we trying to calculate this? isn't this just Qheatingsupply['HP2stage'] ??

/*---------------------------------------------------------------------------------------------------------------------------------------
Set the hot and cold temperature
---------------------------------------------------------------------------------------------------------------------------------------*/
param Th_HP1stage := 323.15;      # 50C

let Qheatingsupply['HP1stageLT'] := 1000;
let Tminheating['HP1stageLT'] := 110;

/*---------------------------------------------------------------------------------------------------------------------------------------
Set cost parameter
---------------------------------------------------------------------------------------------------------------------------------------*/

let cinv1['HP1stageLT'] := 326.19;			#  [CHF]

let cinv2['HP1stageLT'] := 17803;			# continious investment cost [CHF/year]